     Program PWSCF v.7.2 starts on 24Mar2025 at 10:23:20

     Waiting for input...
     Reading input from standard input

     Current dimensions of program PWSCF are:
     Max number of different atomic species (ntypx) = 10
     Max number of k-points (npk) =  40000
     Max angular momentum in pseudopotentials (lmaxx) =  4
     file Pb.pz-dn-kjpaw_psl.0.2.2.UPF: wavefunction(s)  6S renormalized
     file Ti.pz-spn-kjpaw_psl.1.0.0.UPF: wavefunction(s)  3S 3P 3D renormalized
     file O.pz-n-kjpaw_psl.0.1.UPF: wavefunction(s)  2P renormalized
     Message from routine setup:
     using ibrav=0 with symmetry is DISCOURAGED, use correct ibrav instead

     R & G space division:  proc/nbgrp/npool/nimage =      16
     Subspace diagonalization in iterative solution of the eigenvalue problem:
     a serial algorithm will be used

     Using Slab Decomposition

     bravais-lattice index     =            0
     lattice parameter (alat)  =       7.5811  a.u.
     unit-cell volume          =     856.8912 (a.u.)^3
     number of atoms/cell      =           12
     number of atomic types    =            3
     number of electrons       =       104.00
     number of Kohn-Sham states=           66
     kinetic-energy cutoff     =      55.1200  Ry
     charge density cutoff     =     220.4800  Ry
     scf convergence threshold =      1.0E-20
     mixing beta               =       0.2000
     number of iterations used =            8  plain     mixing
     Exchange-correlation= SLA  PZ   NOGX NOGC
                           (   1   1   0   0   0   0   0)

     celldm(1)=   7.581090  celldm(2)=   0.000000  celldm(3)=   0.000000
     celldm(4)=   0.000000  celldm(5)=   0.000000  celldm(6)=   0.000000

     crystal axes: (cart. coord. in units of alat)
               a(1) = (   0.998557   0.000000   0.000000 )
               a(2) = (   0.000000   0.998557   0.000000 )
               a(3) = (   0.000000   0.000000   1.972354 )

     reciprocal axes: (cart. coord. in units 2 pi/alat)
               b(1) = (  1.001445  0.000000  0.000000 )
               b(2) = (  0.000000  1.001445  0.000000 )
               b(3) = (  0.000000  0.000000  0.507008 )

     PseudoPot. # 1 for Pb read from file:
     ./Pb.pz-dn-kjpaw_psl.0.2.2.UPF
     MD5 check sum: 6403c4d76206297a192894ff2d9ba08a
     Pseudo is Projector augmented-wave + core cor, Zval = 14.0
     Generated using "atomic" code by A. Dal Corso  v.5.0.2 svn rev. 9415
     Shape of augmentation charge: PSQ
     Using radial grid of 1281 points,  6 beta functions with:
                l(1) =   0
                l(2) =   0
                l(3) =   1
                l(4) =   1
                l(5) =   2
                l(6) =   2
     Q(r) pseudized with 0 coefficients

     PseudoPot. # 2 for Ti read from file:
     ./Ti.pz-spn-kjpaw_psl.1.0.0.UPF
     MD5 check sum: d738bfca771ecfdd01037dc8ee1e6b9b
     Pseudo is Projector augmented-wave + core cor, Zval = 12.0
     Generated using &quot;atomic&quot; code by A. Dal Corso  v.6.2.2
     Shape of augmentation charge: PSQ
     Using radial grid of 1177 points,  6 beta functions with:
                l(1) =   0
                l(2) =   0
                l(3) =   1
                l(4) =   1
                l(5) =   2
                l(6) =   2
     Q(r) pseudized with 0 coefficients

     PseudoPot. # 3 for O  read from file:
     ./O.pz-n-kjpaw_psl.0.1.UPF
     MD5 check sum: 6b8961753bc530cd482b40fd8ffb4c91
     Pseudo is Projector augmented-wave + core cor, Zval =  6.0
     Generated using "atomic" code by A. Dal Corso  v.5.0.2 svn rev. 9415
     Shape of augmentation charge: BESSEL
     Using radial grid of 1095 points,  4 beta functions with:
                l(1) =   0
                l(2) =   0
                l(3) =   1
                l(4) =   1
     Q(r) pseudized with 0 coefficients

     atomic species   valence    mass     pseudopotential
        Pb            14.00   207.20000     Pb( 1.00)
        Ti            12.00    47.86700     Ti( 1.00)
        O              6.00    15.99900     O ( 1.00)

      4 Sym. Ops. (no inversion) found

   Cartesian axes

     site n.     atom                  positions (alat units)
         1           Pb  tau(   1) = (   0.0068833   0.0068833   0.0000000  )
         2           Ti  tau(   2) = (   0.5060078   0.5060078   0.4690879  )
         3           O   tau(   3) = (   0.5059272   0.5059272   0.0000000  )
         4           O   tau(   4) = (   0.0067093   0.5059476   0.4785949  )
         5           O   tau(   5) = (   0.5059476   0.0067093   0.4785949  )
         6           Ti  tau(   6) = (   0.5059246   0.0067168   0.9861772  )
         7           Ti  tau(   7) = (   0.0067168   0.5059246   0.9861772  )
         8           O   tau(   8) = (   1.0052237   1.0052237   0.9861772  )
         9           O   tau(   9) = (   0.5059955   0.5059955   0.9861772  )
        10           Ti  tau(  10) = (   0.5060078   0.5060078   1.5032666  )
        11           O   tau(  11) = (   0.5059476   0.0067093   1.4937595  )
        12           O   tau(  12) = (   0.0067093   0.5059476   1.4937595  )

     number of k points=   365  Methfessel-Paxton smearing, width (Ry)=  0.0200

     Number of k-points >= 100: set verbosity='high' to print them.

     Check: negative core charge=   -0.000027

     Initial potential from superposition of free atoms

     starting charge     103.9932, renormalised to     104.0000
     Starting wfcs are   77 randomized atomic wfcs
     Checking if some PAW data can be deallocated...

     Self-consistent Calculation

     iteration #  1     ecut=    55.12 Ry     beta= 0.20
     Davidson diagonalization with overlap
     ethr =  1.00E-02,  avg # of iterations =  2.0

     total energy              =   -1854.45421611 Ry
     estimated scf accuracy    <       3.61466029 Ry

[...]

     iteration #  7     ecut=    55.12 Ry     beta= 0.20
     Davidson diagonalization with overlap
     c_bands:  1 eigenvalues not converged
     ethr =  6.01E-06,  avg # of iterations =  3.2

[...]

     total energy              =   -1854.70963573 Ry
     estimated scf accuracy    <          4.7E-19 Ry

     iteration # 71     ecut=    55.12 Ry     beta= 0.20
     Davidson diagonalization with overlap
     ethr =  1.00E-13,  avg # of iterations =  1.0

     End of self-consistent calculation

     Number of k-points >= 100: set verbosity='high' to print the bands.

     the Fermi energy is    14.2000 ev

!    total energy              =   -1854.70963573 Ry
     total all-electron energy =    -49606.374833 Ry
     estimated scf accuracy    <          9.8E-21 Ry
     smearing contrib. (-TS)   =       0.00094749 Ry
     internal energy E=F+TS    =   -1854.71058322 Ry

     The total energy is F=E-TS. E is the sum of the following terms:
     one-electron contribution =    -237.21770865 Ry
     hartree contribution      =     188.29510136 Ry
     xc contribution           =    -169.29028544 Ry
     ewald contribution        =    -621.82855913 Ry
     one-center paw contrib.   =   -1014.66913137 Ry

     convergence has been achieved in  71 iterations

     Forces acting on atoms (cartesian axes, Ry/au):

     atom    1 type  1   force =     0.00000581    0.00000581    0.00000000
     atom    2 type  2   force =    -0.00001656   -0.00001656    0.00007778
     atom    3 type  3   force =     0.00000662    0.00000662    0.00000000
     atom    4 type  3   force =    -0.00001263    0.00001689   -0.00000022
     atom    5 type  3   force =     0.00001689   -0.00001263   -0.00000022
     atom    6 type  2   force =     0.00003122   -0.00001065    0.00000000
     atom    7 type  2   force =    -0.00001065    0.00003122    0.00000000
     atom    8 type  3   force =    -0.00001409   -0.00001409    0.00000000
     atom    9 type  3   force =     0.00000568    0.00000568    0.00000000
     atom   10 type  2   force =    -0.00001656   -0.00001656   -0.00007778
     atom   11 type  3   force =     0.00001689   -0.00001263    0.00000022
     atom   12 type  3   force =    -0.00001263    0.00001689    0.00000022
     The non-local contrib.  to forces
     atom    1 type  1   force =     0.00051923    0.00051923    0.00000000
     atom    2 type  2   force =    -0.00001904   -0.00001904    0.06581762
     atom    3 type  3   force =    -0.00017164   -0.00017164    0.00000000
     atom    4 type  3   force =    -0.00009890   -0.00015896    0.36563222
     atom    5 type  3   force =    -0.00015896   -0.00009890    0.36563222
     atom    6 type  2   force =    -0.00009662    0.00008885   -0.00000000
     atom    7 type  2   force =     0.00008885   -0.00009662    0.00000000
     atom    8 type  3   force =     0.00017982    0.00017982    0.00000000
     atom    9 type  3   force =    -0.00015541   -0.00015541    0.00000000
     atom   10 type  2   force =    -0.00001904   -0.00001904   -0.06581762
     atom   11 type  3   force =    -0.00015896   -0.00009890   -0.36563222
     atom   12 type  3   force =    -0.00009890   -0.00015896   -0.36563222
     The ionic contribution  to forces
     atom    1 type  1   force =    -0.01375075   -0.01375075   -0.00000000
     atom    2 type  2   force =     0.00396782    0.00396782  -15.41086375
     atom    3 type  3   force =     0.00353580    0.00353580    0.00000000
     atom    4 type  3   force =    -0.00060826    0.00229807  -10.22106566
     atom    5 type  3   force =     0.00229807   -0.00060826  -10.22106566
     atom    6 type  2   force =     0.00163374   -0.00173799    0.00000000
     atom    7 type  2   force =    -0.00173799    0.00163374    0.00000000
     atom    8 type  3   force =    -0.00240266   -0.00240266    0.00000000
     atom    9 type  3   force =     0.00140661    0.00140661    0.00000000
     atom   10 type  2   force =     0.00396782    0.00396782   15.41086375
     atom   11 type  3   force =     0.00229807   -0.00060826   10.22106566
     atom   12 type  3   force =    -0.00060826    0.00229807   10.22106566
     The local contribution  to forces
     atom    1 type  1   force =     0.01326230    0.01326230   -0.00000000
     atom    2 type  2   force =    -0.00396205   -0.00396205   15.33431354
     atom    3 type  3   force =    -0.00335620   -0.00335620   -0.00000000
     atom    4 type  3   force =     0.00069940   -0.00212056    9.85830054
     atom    5 type  3   force =    -0.00212056    0.00069940    9.85830054
     atom    6 type  2   force =    -0.00151687    0.00163440    0.00000000
     atom    7 type  2   force =     0.00163440   -0.00151687    0.00000000
     atom    8 type  3   force =     0.00221530    0.00221530    0.00000000
     atom    9 type  3   force =    -0.00123994   -0.00123994   -0.00000000
     atom   10 type  2   force =    -0.00396205   -0.00396205  -15.33431354
     atom   11 type  3   force =    -0.00212056    0.00069940   -9.85830054
     atom   12 type  3   force =     0.00069940   -0.00212056   -9.85830054
     The core correction contribution to forces
     atom    1 type  1   force =    -0.00002341   -0.00002341    0.00000000
     atom    2 type  2   force =    -0.00000172   -0.00000172    0.01081037
     atom    3 type  3   force =     0.00000022    0.00000022    0.00000000
     atom    4 type  3   force =    -0.00000331   -0.00000009   -0.00286732
     atom    5 type  3   force =    -0.00000009   -0.00000331   -0.00286732
     atom    6 type  2   force =     0.00001253    0.00000565   -0.00000000
     atom    7 type  2   force =     0.00000565    0.00001253   -0.00000000
     atom    8 type  3   force =    -0.00000500   -0.00000500    0.00000000
     atom    9 type  3   force =    -0.00000401   -0.00000401   -0.00000000
     atom   10 type  2   force =    -0.00000172   -0.00000172   -0.01081037
     atom   11 type  3   force =    -0.00000009   -0.00000331    0.00286732
     atom   12 type  3   force =    -0.00000331   -0.00000009    0.00286732
     The Hubbard contrib.    to forces
     atom    1 type  1   force =     0.00000000    0.00000000    0.00000000
     atom    2 type  2   force =     0.00000000    0.00000000    0.00000000
     atom    3 type  3   force =     0.00000000    0.00000000    0.00000000
     atom    4 type  3   force =     0.00000000    0.00000000    0.00000000
     atom    5 type  3   force =     0.00000000    0.00000000    0.00000000
     atom    6 type  2   force =     0.00000000    0.00000000    0.00000000
     atom    7 type  2   force =     0.00000000    0.00000000    0.00000000
     atom    8 type  3   force =     0.00000000    0.00000000    0.00000000
     atom    9 type  3   force =     0.00000000    0.00000000    0.00000000
     atom   10 type  2   force =     0.00000000    0.00000000    0.00000000
     atom   11 type  3   force =     0.00000000    0.00000000    0.00000000
     atom   12 type  3   force =     0.00000000    0.00000000    0.00000000
     The SCF correction term to forces
     atom    1 type  1   force =    -0.00000000   -0.00000000   -0.00000000
     atom    2 type  2   force =     0.00000000    0.00000000    0.00000000
     atom    3 type  3   force =     0.00000000    0.00000000   -0.00000000
     atom    4 type  3   force =     0.00000000   -0.00000000    0.00000000
     atom    5 type  3   force =    -0.00000000    0.00000000    0.00000000
     atom    6 type  2   force =    -0.00000000    0.00000000    0.00000000
     atom    7 type  2   force =     0.00000000   -0.00000000    0.00000000
     atom    8 type  3   force =     0.00000000    0.00000000    0.00000000
     atom    9 type  3   force =    -0.00000000   -0.00000000    0.00000000
     atom   10 type  2   force =     0.00000000    0.00000000   -0.00000000
     atom   11 type  3   force =    -0.00000000    0.00000000   -0.00000000
     atom   12 type  3   force =     0.00000000   -0.00000000   -0.00000000

     Total force =     0.000133     Total SCF correction =     0.000000

     Computing stress (Cartesian axis) and pressure

          total   stress  (Ry/bohr**3)                   (kbar)     P=       -0.00
   0.00000008  -0.00000001   0.00000000            0.01       -0.00        0.00
  -0.00000001   0.00000008   0.00000000           -0.00        0.01        0.00
   0.00000000   0.00000000  -0.00000021            0.00        0.00       -0.03

     Writing all to output data dir ./tmp/PTOTiO.save/

     General routines

     Parallel routines

   This run was terminated on:  10:44:58  24Mar2025

   JOB DONE.