     Program PWSCF v.7.2 starts on 17Apr2025 at 12:26:43

     Waiting for input...
     Reading input from standard input

     Current dimensions of program PWSCF are:
     Max number of different atomic species (ntypx) = 10
     Max number of k-points (npk) =  40000
     Max angular momentum in pseudopotentials (lmaxx) =  4
     file Ti.pbe-spn-kjpaw_psl.1.0.0.UPF: wavefunction(s)  3S 3P 3D renormalized
     file O.pbe-n-kjpaw_psl.1.0.0.UPF: wavefunction(s)  2S 2P renormalized
     Message from routine setup:
     using ibrav=0 with symmetry is DISCOURAGED, use correct ibrav instead

     R & G space division:  proc/nbgrp/npool/nimage =      16
     Subspace diagonalization in iterative solution of the eigenvalue problem:
     a serial algorithm will be used

     Using Slab Decomposition

     bravais-lattice index     =            0
     lattice parameter (alat)  =      11.4632  a.u.
     unit-cell volume          =     753.1685 (a.u.)^3
     number of atoms/cell      =            2
     number of atomic types    =            2
     number of electrons       =        18.00
     number of Kohn-Sham states=           13
     kinetic-energy cutoff     =      70.0000  Ry
     charge density cutoff     =     280.0000  Ry
     scf convergence threshold =      1.0E-12
     mixing beta               =       0.2000
     number of iterations used =            8  plain     mixing
     energy convergence thresh.=      1.0E-05
     force convergence thresh. =      1.0E-04
     press convergence thresh. =      5.0E-01
     Exchange-correlation= SLA  PW   PBX  PBC
                           (   1   4   3   4   0   0   0)
     nstep                     =         1000

     celldm(1)=  11.463240  celldm(2)=   0.000000  celldm(3)=   0.000000
     celldm(4)=   0.000000  celldm(5)=   0.000000  celldm(6)=   0.000000

     crystal axes: (cart. coord. in units of alat)
               a(1) = (   0.500000   0.500000   0.500000 )
               a(2) = (   0.500000   0.500000  -0.500000 )
               a(3) = (  -0.500000   0.500000   0.500000 )

     reciprocal axes: (cart. coord. in units 2 pi/alat)
               b(1) = (  1.000000  0.000000  1.000000 )
               b(2) = (  0.000000  1.000000 -1.000000 )
               b(3) = ( -1.000000  1.000000  0.000000 )

     PseudoPot. # 1 for Ti read from file:
     ./Ti.pbe-spn-kjpaw_psl.1.0.0.UPF
     MD5 check sum: 01f69b0d8ba4438b2e03ac6ea4af1c0b
     Pseudo is Projector augmented-wave + core cor, Zval = 12.0
     Generated using &quot;atomic&quot; code by A. Dal Corso  v.6.2.2
     Shape of augmentation charge: PSQ
     Using radial grid of 1177 points,  6 beta functions with:
                l(1) =   0
                l(2) =   0
                l(3) =   1
                l(4) =   1
                l(5) =   2
                l(6) =   2
     Q(r) pseudized with 0 coefficients

     PseudoPot. # 2 for O  read from file:
     ./O.pbe-n-kjpaw_psl.1.0.0.UPF
     MD5 check sum: e99d9cef9b487d1ca56f5b95ecd0fd7a
     Pseudo is Projector augmented-wave + core cor, Zval =  6.0
     Generated using &quot;atomic&quot; code by A. Dal Corso  v.6.3
     Shape of augmentation charge: PSQ
     Using radial grid of 1095 points,  4 beta functions with:
                l(1) =   0
                l(2) =   0
                l(3) =   1
                l(4) =   1
     Q(r) pseudized with 0 coefficients

     atomic species   valence    mass     pseudopotential
        Ti            12.00    47.86700     Ti( 1.00)
        O              6.00    15.99900     O ( 1.00)

     12 Sym. Ops., with inversion, found

   Cartesian axes

     site n.     atom                  positions (alat units)
         1           Ti  tau(   1) = (   0.0000000   0.0000000   0.0000000  )
         2           O   tau(   2) = (   0.2500000   0.7500000   0.2500000  )

     number of k points=   116  Methfessel-Paxton smearing, width (Ry)=  0.0200

     Number of k-points >= 100: set verbosity='high' to print them.

     Atomic positions and unit cell read from directory:
     ./tmp/TiO.save/
     Atomic positions from file used, from input discarded

     Check: negative core charge=   -0.000002

     The initial density is read from file :
     ./tmp/TiO.save/charge-density

     starting charge      14.6528, renormalised to      18.0000
     Starting wfcs from file
     Checking if some PAW data can be deallocated...

     Self-consistent Calculation

     iteration #  1     ecut=    70.00 Ry     beta= 0.20
     Davidson diagonalization with overlap
     ethr =  1.00E-05,  avg # of iterations = 10.3

     total energy              =    -225.79644784 Ry
     estimated scf accuracy    <       2.38345022 Ry

[...]

     End of self-consistent calculation

     Number of k-points >= 100: set verbosity='high' to print the bands.

     the Fermi energy is    16.4096 ev

!    total energy              =    -225.46253426 Ry
     total all-electron energy =     -1858.232334 Ry
     estimated scf accuracy    <          8.2E-13 Ry
     smearing contrib. (-TS)   =       0.00062821 Ry
     internal energy E=F+TS    =    -225.46316246 Ry

     The total energy is F=E-TS. E is the sum of the following terms:
     one-electron contribution =     -31.24978711 Ry
     hartree contribution      =      27.17838290 Ry
     xc contribution           =     -26.21501876 Ry
     ewald contribution        =    -120.27637121 Ry
     one-center paw contrib.   =     -74.90036828 Ry

     convergence has been achieved in  25 iterations

     Forces acting on atoms (cartesian axes, Ry/au):

     atom    1 type  1   force =    -0.00000000   -0.00000000   -0.00000000
     atom    2 type  2   force =    -0.00000000   -0.00000000   -0.00000000
     The non-local contrib.  to forces
     atom    1 type  1   force =     0.00000000   -0.00000000    0.00000000
     atom    2 type  2   force =    -0.00000000   -0.00000000   -0.00000000
     The ionic contribution  to forces
     atom    1 type  1   force =    -0.00000000    0.00000000   -0.00000000
     atom    2 type  2   force =     0.00000000   -0.00000000    0.00000000
     The local contribution  to forces
     atom    1 type  1   force =     0.00000000   -0.00000000    0.00000000
     atom    2 type  2   force =    -0.00000000   -0.00000000    0.00000000
     The core correction contribution to forces
     atom    1 type  1   force =     0.00000000    0.00000000   -0.00000000
     atom    2 type  2   force =    -0.00000000    0.00000000   -0.00000000
     The Hubbard contrib.    to forces
     atom    1 type  1   force =     0.00000000    0.00000000    0.00000000
     atom    2 type  2   force =     0.00000000    0.00000000    0.00000000
     The SCF correction term to forces
     atom    1 type  1   force =    -0.00000000   -0.00000000    0.00000000
     atom    2 type  2   force =    -0.00000000   -0.00000000    0.00000000

     Total force =     0.000000     Total SCF correction =     0.000000

     Computing stress (Cartesian axis) and pressure

          total   stress  (Ry/bohr**3)                   (kbar)     P=       98.03
   0.00066639  -0.00126625   0.00126625           98.03     -186.27      186.27
  -0.00126625   0.00066639  -0.00126625         -186.27       98.03     -186.27
   0.00126625  -0.00126625   0.00066639          186.27     -186.27       98.03

     Energy error            =      3.6E-02 Ry
     Gradient error          =      5.3E-29 Ry/Bohr
     Cell gradient error     =      1.9E+02 kbar

     number of scf cycles    =  22
     number of bfgs steps    =  21

     enthalpy           old  =    -225.4266294105 Ry
     enthalpy           new  =    -225.4625342563 Ry

     CASE: enthalpy          _new < enthalpy          _old

     WARNING: bfgs curvature condition failed, Theta= 0.561
     new trust radius        =       0.2729904741 bohr
WARNING! With ibrav=0, cell_dofree='ibrav' has no effect.
     new conv_thr            =            1.0E-14 Ry

     new unit-cell volume =    190.04312 a.u.^3 (    28.16148 Ang^3 )
     density =      3.76585 g/cm^3

CELL_PARAMETERS (alat= 11.46323974)
   0.322829254   0.224476828   0.322829254
   0.224476828   0.322829254  -0.322829254
  -0.322829254   0.322829254   0.224476828

ATOMIC_POSITIONS (crystal)
Ti            0.0000000000       -0.0000000000       -0.0000000000
O             0.5000000000        0.5000000000        0.5000000000

     Writing config-only to output data dir ./tmp/TiO.save/
     NEW-OLD atomic charge density approx. for the potential

     Check: negative core charge=   -0.000002
     extrapolated charge   23.06455, renormalised to   18.00000

[...]

     CASE: enthalpy          _new > enthalpy          _old

     new trust radius        =       0.0577530998 bohr
WARNING! With ibrav=0, cell_dofree='ibrav' has no effect.
     new conv_thr            =            1.0E-14 Ry

[...]

     WARNING: info=  8 for Hessian
     uphill step: resetting bfgs history

[...]

     WARNING: bfgs curvature condition failed, Theta= 0.773
     new trust radius        =       0.0958343548 bohr
WARNING! With ibrav=0, cell_dofree='ibrav' has no effect.
     new conv_thr            =            1.0E-14 Ry

[...]

     Energy error            =      1.9E-05 Ry
     Gradient error          =      9.2E-29 Ry/Bohr
     Cell gradient error     =      3.5E+00 kbar

     number of scf cycles    =  33
     number of bfgs steps    =  31

     enthalpy           old  =    -225.5105747402 Ry
     enthalpy           new  =    -225.5105938328 Ry

     CASE: enthalpy          _new < enthalpy          _old

     new trust radius        =       0.0020851766 bohr
WARNING! With ibrav=0, cell_dofree='ibrav' has no effect.
     new conv_thr            =            1.0E-14 Ry

     new unit-cell volume =    125.36229 a.u.^3 (    18.57677 Ang^3 )
     density =      5.70885 g/cm^3

[...]

ATOMIC_POSITIONS (crystal)
Ti            0.0000000000       -0.0000000000       -0.0000000000
O             0.5000000000        0.5000000000        0.5000000000

     Writing config-only to output data dir ./tmp/TiO.save/
     NEW-OLD atomic charge density approx. for the potential

     Check: negative core charge=   -0.000002
     extrapolated charge   17.97125, renormalised to   18.00000

[...]

     Energy error            =      3.2E-06 Ry
     Gradient error          =      8.4E-29 Ry/Bohr
     Cell gradient error     =      4.2E-02 kbar
WARNING! With ibrav=0, cell_dofree='ibrav' has no effect.

     bfgs converged in  34 scf cycles and  32 bfgs steps
     (criteria: energy <  1.0E-05 Ry, force <  1.0E-04 Ry/Bohr, cell <  5.0E-01 kbar)

     End of BFGS Geometry Optimization

     Final enthalpy           =    -225.5105970710 Ry

     File ./tmp/TiO.bfgs deleted, as requested
Begin final coordinates
     new unit-cell volume =    125.36229 a.u.^3 (    18.57677 Ang^3 )
     density =      5.70885 g/cm^3

CELL_PARAMETERS (alat= 11.46323974)
   0.291050022   0.145593487   0.291050022
   0.145593487   0.291050022  -0.291050022
  -0.291050022   0.291050022   0.145593487

ATOMIC_POSITIONS (crystal)
Ti            0.0000000000       -0.0000000000       -0.0000000000
O             0.5000000000        0.5000000000        0.5000000000
End final coordinates

     Writing config-only to output data dir ./tmp/TiO.save/

     Final scf calculation at the relaxed structure.
     The G-vectors are recalculated for the final unit cell
     Results may differ from those at the preceding step.

     Using Slab Decomposition

     bravais-lattice index     =            0
     lattice parameter (alat)  =      11.4632  a.u.
     unit-cell volume          =     125.3623 (a.u.)^3
     number of atoms/cell      =            2
     number of atomic types    =            2
     number of electrons       =        18.00
     number of Kohn-Sham states=           13
     kinetic-energy cutoff     =      70.0000  Ry
     charge density cutoff     =     280.0000  Ry
     scf convergence threshold =      1.0E-14
     mixing beta               =       0.2000
     number of iterations used =            8  plain     mixing
     press convergence thresh. =      5.0E-01
     Exchange-correlation= SLA  PW   PBX  PBC
                           (   1   4   3   4   0   0   0)

     celldm(1)=  11.463240  celldm(2)=   0.000000  celldm(3)=   0.000000
     celldm(4)=   0.000000  celldm(5)=   0.000000  celldm(6)=   0.000000

     crystal axes: (cart. coord. in units of alat)
               a(1) = (   0.291050   0.145593   0.291050 )
               a(2) = (   0.145593   0.291050  -0.291050 )
               a(3) = (  -0.291050   0.291050   0.145593 )

     reciprocal axes: (cart. coord. in units 2 pi/alat)
               b(1) = (  1.527038  0.763160  1.527038 )
               b(2) = (  0.763160  1.527038 -1.527038 )
               b(3) = ( -1.527038  1.527038  0.763160 )

     PseudoPot. # 1 for Ti read from file:
     ./Ti.pbe-spn-kjpaw_psl.1.0.0.UPF
     MD5 check sum: 01f69b0d8ba4438b2e03ac6ea4af1c0b
     Pseudo is Projector augmented-wave + core cor, Zval = 12.0
     Generated using &quot;atomic&quot; code by A. Dal Corso  v.6.2.2
     Shape of augmentation charge: PSQ
     Using radial grid of 1177 points,  6 beta functions with:
                l(1) =   0
                l(2) =   0
                l(3) =   1
                l(4) =   1
                l(5) =   2
                l(6) =   2
     Q(r) pseudized with 0 coefficients

     PseudoPot. # 2 for O  read from file:
     ./O.pbe-n-kjpaw_psl.1.0.0.UPF
     MD5 check sum: e99d9cef9b487d1ca56f5b95ecd0fd7a
     Pseudo is Projector augmented-wave + core cor, Zval =  6.0
     Generated using &quot;atomic&quot; code by A. Dal Corso  v.6.3
     Shape of augmentation charge: PSQ
     Using radial grid of 1095 points,  4 beta functions with:
                l(1) =   0
                l(2) =   0
                l(3) =   1
                l(4) =   1
     Q(r) pseudized with 0 coefficients

     atomic species   valence    mass     pseudopotential
        Ti            12.00    47.86700     Ti( 1.00)
        O              6.00    15.99900     O ( 1.00)

     12 Sym. Ops., with inversion, found

   Cartesian axes

     site n.     atom                  positions (alat units)
         1           Ti  tau(   1) = (   0.0000000  -0.0000000   0.0000000  )
         2           O   tau(   2) = (   0.0727967   0.3638468   0.0727967  )

     number of k points=   116  Methfessel-Paxton smearing, width (Ry)=  0.0200

     Number of k-points >= 100: set verbosity='high' to print them.

     Atomic positions and unit cell read from directory:
     ./tmp/TiO.save/

     Check: negative core charge=   -0.000032

     Initial potential from superposition of free atoms

     starting charge      17.9985, renormalised to      18.0000
     Starting wfcs are   14 randomized atomic wfcs
     Checking if some PAW data can be deallocated...

     Self-consistent Calculation

[...]

     total energy              =    -225.50938351 Ry
     estimated scf accuracy    <          8.9E-14 Ry

     iteration # 31     ecut=    70.00 Ry     beta= 0.20
     Davidson diagonalization with overlap
     ethr =  1.00E-13,  avg # of iterations =  1.0

     End of self-consistent calculation

     Number of k-points >= 100: set verbosity='high' to print the bands.

     the Fermi energy is    18.0074 ev

!    total energy              =    -225.50938351 Ry
     total all-electron energy =     -1858.279184 Ry
     estimated scf accuracy    <          7.0E-15 Ry
     smearing contrib. (-TS)   =       0.00039717 Ry
     internal energy E=F+TS    =    -225.50978068 Ry

     The total energy is F=E-TS. E is the sum of the following terms:
     one-electron contribution =     -23.61908079 Ry
     hartree contribution      =      24.37803276 Ry
     xc contribution           =     -26.25727892 Ry
     ewald contribution        =    -125.11770384 Ry
     one-center paw contrib.   =     -74.89374989 Ry

     convergence has been achieved in  31 iterations

     Forces acting on atoms (cartesian axes, Ry/au):

     atom    1 type  1   force =     0.00000000    0.00000000   -0.00000000
     atom    2 type  2   force =    -0.00000000   -0.00000000    0.00000000
     The non-local contrib.  to forces
     atom    1 type  1   force =    -0.00000000    0.00000000   -0.00000000
     atom    2 type  2   force =     0.00000000    0.00000000   -0.00000000
     The ionic contribution  to forces
     atom    1 type  1   force =     0.00000000    0.00000000   -0.00000000
     atom    2 type  2   force =    -0.00000000   -0.00000000    0.00000000
     The local contribution  to forces
     atom    1 type  1   force =     0.00000000   -0.00000000   -0.00000000
     atom    2 type  2   force =    -0.00000000   -0.00000000    0.00000000
     The core correction contribution to forces
     atom    1 type  1   force =     0.00000000   -0.00000000   -0.00000000
     atom    2 type  2   force =     0.00000000    0.00000000   -0.00000000
     The Hubbard contrib.    to forces
     atom    1 type  1   force =     0.00000000    0.00000000    0.00000000
     atom    2 type  2   force =     0.00000000    0.00000000    0.00000000
     The SCF correction term to forces
     atom    1 type  1   force =    -0.00000000    0.00000000    0.00000000
     atom    2 type  2   force =    -0.00000000    0.00000000    0.00000000

     Total force =     0.000000     Total SCF correction =     0.000000

     Computing stress (Cartesian axis) and pressure

          total   stress  (Ry/bohr**3)                   (kbar)     P=       -5.80
  -0.00003940  -0.00000085   0.00000085           -5.80       -0.12        0.12
  -0.00000085  -0.00003940  -0.00000085           -0.12       -5.80       -0.12
   0.00000085  -0.00000085  -0.00003940            0.12       -0.12       -5.80

     Writing all to output data dir ./tmp/TiO.save/

     General routines

     Parallel routines

   This run was terminated on:  12:36:30  17Apr2025

   JOB DONE.