     Program PWSCF v.7.2 starts on 11Apr2025 at 13:50:52

     Waiting for input...
     Reading input from standard input

     Current dimensions of program PWSCF are:
     Max number of different atomic species (ntypx) = 10
     Max number of k-points (npk) =  40000
     Max angular momentum in pseudopotentials (lmaxx) =  4

     File ./tmp/TiO.update deleted, as requested

     File ./tmp/TiO.bfgs deleted, as requested
     file Ti.pbe-spn-kjpaw_psl.1.0.0.UPF: wavefunction(s)  3S 3P 3D renormalized
     file O.pbe-n-kjpaw_psl.1.0.0.UPF: wavefunction(s)  2S 2P renormalized

     K-points division:     npool     =       2
     R & G space division:  proc/nbgrp/npool/nimage =       8
     Subspace diagonalization in iterative solution of the eigenvalue problem:
     a serial algorithm will be used

     Using Slab Decomposition

     bravais-lattice index     =            1
     lattice parameter (alat)  =       3.0330  a.u.
     unit-cell volume          =      27.9020 (a.u.)^3
     number of atoms/cell      =            2
     number of atomic types    =            2
     number of electrons       =        18.00
     number of Kohn-Sham states=           13
     kinetic-energy cutoff     =      70.0000  Ry
     charge density cutoff     =     280.0000  Ry
     scf convergence threshold =      1.0E-12
     mixing beta               =       0.2000
     number of iterations used =            8  plain     mixing
     energy convergence thresh.=      1.0E-05
     force convergence thresh. =      1.0E-04
     press convergence thresh. =      5.0E-01
     Exchange-correlation= SLA  PW   PBX  PBC
                           (   1   4   3   4   0   0   0)
     nstep                     =         1000

     celldm(1)=   3.033043  celldm(2)=   0.000000  celldm(3)=   0.000000
     celldm(4)=   0.000000  celldm(5)=   0.000000  celldm(6)=   0.000000

     crystal axes: (cart. coord. in units of alat)
               a(1) = (   1.000000   0.000000   0.000000 )
               a(2) = (   0.000000   1.000000   0.000000 )
               a(3) = (   0.000000   0.000000   1.000000 )

     reciprocal axes: (cart. coord. in units 2 pi/alat)
               b(1) = (  1.000000  0.000000  0.000000 )
               b(2) = (  0.000000  1.000000  0.000000 )
               b(3) = (  0.000000  0.000000  1.000000 )

     PseudoPot. # 1 for Ti read from file:
     ./Ti.pbe-spn-kjpaw_psl.1.0.0.UPF
     MD5 check sum: 01f69b0d8ba4438b2e03ac6ea4af1c0b
     Pseudo is Projector augmented-wave + core cor, Zval = 12.0
     Generated using &quot;atomic&quot; code by A. Dal Corso  v.6.2.2
     Shape of augmentation charge: PSQ
     Using radial grid of 1177 points,  6 beta functions with:
                l(1) =   0
                l(2) =   0
                l(3) =   1
                l(4) =   1
                l(5) =   2
                l(6) =   2
     Q(r) pseudized with 0 coefficients

     PseudoPot. # 2 for O  read from file:
     ./O.pbe-n-kjpaw_psl.1.0.0.UPF
     MD5 check sum: e99d9cef9b487d1ca56f5b95ecd0fd7a
     Pseudo is Projector augmented-wave + core cor, Zval =  6.0
     Generated using &quot;atomic&quot; code by A. Dal Corso  v.6.3
     Shape of augmentation charge: PSQ
     Using radial grid of 1095 points,  4 beta functions with:
                l(1) =   0
                l(2) =   0
                l(3) =   1
                l(4) =   1
     Q(r) pseudized with 0 coefficients

     atomic species   valence    mass     pseudopotential
        Ti            12.00    47.86700     Ti( 1.00)
        O              6.00    15.99900     O ( 1.00)

     48 Sym. Ops., with inversion, found

   Cartesian axes

     site n.     atom                  positions (alat units)
         1           Ti  tau(   1) = (   0.0000000   0.0000000   0.0000000  )
         2           O   tau(   2) = (   0.5000000   0.5000000   0.5000000  )

     number of k points=    56  Methfessel-Paxton smearing, width (Ry)=  0.0200
                       cart. coord. in units 2pi/alat
        k(    1) = (   0.0000000   0.0000000   0.0000000), wk =   0.0020000
        k(    2) = (   0.0000000   0.0000000   0.1000000), wk =   0.0120000
        k(    3) = (   0.0000000   0.0000000   0.2000000), wk =   0.0120000
        k(    4) = (   0.0000000   0.0000000   0.3000000), wk =   0.0120000
        k(    5) = (   0.0000000   0.0000000   0.4000000), wk =   0.0120000
        k(    6) = (   0.0000000   0.0000000  -0.5000000), wk =   0.0060000
        k(    7) = (   0.0000000   0.1000000   0.1000000), wk =   0.0240000
        k(    8) = (   0.0000000   0.1000000   0.2000000), wk =   0.0480000
        k(    9) = (   0.0000000   0.1000000   0.3000000), wk =   0.0480000
        k(   10) = (   0.0000000   0.1000000   0.4000000), wk =   0.0480000
        k(   11) = (   0.0000000   0.1000000  -0.5000000), wk =   0.0240000
        k(   12) = (   0.0000000   0.2000000   0.2000000), wk =   0.0240000
        k(   13) = (   0.0000000   0.2000000   0.3000000), wk =   0.0480000
        k(   14) = (   0.0000000   0.2000000   0.4000000), wk =   0.0480000
        k(   15) = (   0.0000000   0.2000000  -0.5000000), wk =   0.0240000
        k(   16) = (   0.0000000   0.3000000   0.3000000), wk =   0.0240000
        k(   17) = (   0.0000000   0.3000000   0.4000000), wk =   0.0480000
        k(   18) = (   0.0000000   0.3000000  -0.5000000), wk =   0.0240000
        k(   19) = (   0.0000000   0.4000000   0.4000000), wk =   0.0240000
        k(   20) = (   0.0000000   0.4000000  -0.5000000), wk =   0.0240000
        k(   21) = (   0.0000000  -0.5000000  -0.5000000), wk =   0.0060000
        k(   22) = (   0.1000000   0.1000000   0.1000000), wk =   0.0160000
        k(   23) = (   0.1000000   0.1000000   0.2000000), wk =   0.0480000
        k(   24) = (   0.1000000   0.1000000   0.3000000), wk =   0.0480000
        k(   25) = (   0.1000000   0.1000000   0.4000000), wk =   0.0480000
        k(   26) = (   0.1000000   0.1000000  -0.5000000), wk =   0.0240000
        k(   27) = (   0.1000000   0.2000000   0.2000000), wk =   0.0480000
        k(   28) = (   0.1000000   0.2000000   0.3000000), wk =   0.0960000
        k(   29) = (   0.1000000   0.2000000   0.4000000), wk =   0.0960000
        k(   30) = (   0.1000000   0.2000000  -0.5000000), wk =   0.0480000
        k(   31) = (   0.1000000   0.3000000   0.3000000), wk =   0.0480000
        k(   32) = (   0.1000000   0.3000000   0.4000000), wk =   0.0960000
        k(   33) = (   0.1000000   0.3000000  -0.5000000), wk =   0.0480000
        k(   34) = (   0.1000000   0.4000000   0.4000000), wk =   0.0480000
        k(   35) = (   0.1000000   0.4000000  -0.5000000), wk =   0.0480000
        k(   36) = (   0.1000000  -0.5000000  -0.5000000), wk =   0.0120000
        k(   37) = (   0.2000000   0.2000000   0.2000000), wk =   0.0160000
        k(   38) = (   0.2000000   0.2000000   0.3000000), wk =   0.0480000
        k(   39) = (   0.2000000   0.2000000   0.4000000), wk =   0.0480000
        k(   40) = (   0.2000000   0.2000000  -0.5000000), wk =   0.0240000
        k(   41) = (   0.2000000   0.3000000   0.3000000), wk =   0.0480000
        k(   42) = (   0.2000000   0.3000000   0.4000000), wk =   0.0960000
        k(   43) = (   0.2000000   0.3000000  -0.5000000), wk =   0.0480000
        k(   44) = (   0.2000000   0.4000000   0.4000000), wk =   0.0480000
        k(   45) = (   0.2000000   0.4000000  -0.5000000), wk =   0.0480000
        k(   46) = (   0.2000000  -0.5000000  -0.5000000), wk =   0.0120000
        k(   47) = (   0.3000000   0.3000000   0.3000000), wk =   0.0160000
        k(   48) = (   0.3000000   0.3000000   0.4000000), wk =   0.0480000
        k(   49) = (   0.3000000   0.3000000  -0.5000000), wk =   0.0240000
        k(   50) = (   0.3000000   0.4000000   0.4000000), wk =   0.0480000
        k(   51) = (   0.3000000   0.4000000  -0.5000000), wk =   0.0480000
        k(   52) = (   0.3000000  -0.5000000  -0.5000000), wk =   0.0120000
        k(   53) = (   0.4000000   0.4000000   0.4000000), wk =   0.0160000
        k(   54) = (   0.4000000   0.4000000  -0.5000000), wk =   0.0240000
        k(   55) = (   0.4000000  -0.5000000  -0.5000000), wk =   0.0120000
        k(   56) = (  -0.5000000  -0.5000000  -0.5000000), wk =   0.0020000

     Check: negative core charge=   -0.000043

     Initial potential from superposition of free atoms

     starting charge      17.9985, renormalised to      18.0000
     Starting wfcs are   14 randomized atomic wfcs
     Checking if some PAW data can be deallocated...

     Self-consistent Calculation

     iteration #  1     ecut=    70.00 Ry     beta= 0.20
     Davidson diagonalization with overlap
     ethr =  1.00E-02,  avg # of iterations =  3.0

     total energy              =    -218.59273016 Ry
     estimated scf accuracy    <       0.48513021 Ry

[...]

     End of self-consistent calculation

          k = 0.0000 0.0000 0.0000 (   257 PWs)   bands (ev):

    -1.6182  40.9066  40.9066  40.9066  55.0645  57.8719  57.8719  75.4935
    75.4935  75.4935  86.8033  86.8033  86.8033

[...]

          k =-0.5000-0.5000-0.5000 (   280 PWs)   bands (ev):

[...]

     the Fermi energy is    79.6672 ev

!    total energy              =    -218.50451767 Ry
     total all-electron energy =     -1851.274318 Ry
     estimated scf accuracy    <          6.2E-13 Ry
     smearing contrib. (-TS)   =      -0.00019488 Ry
     internal energy E=F+TS    =    -218.50432280 Ry

     The total energy is F=E-TS. E is the sum of the following terms:
     one-electron contribution =      89.32745682 Ry
     hartree contribution      =       5.33937517 Ry
     xc contribution           =     -31.61859849 Ry
     ewald contribution        =    -206.45681791 Ry
     one-center paw contrib.   =     -75.09573839 Ry

     convergence has been achieved in  18 iterations

     Forces acting on atoms (cartesian axes, Ry/au):

     atom    1 type  1   force =     0.00000000    0.00000000    0.00000000
     atom    2 type  2   force =     0.00000000    0.00000000    0.00000000
     The non-local contrib.  to forces
     atom    1 type  1   force =     0.00000000    0.00000000    0.00000000
     atom    2 type  2   force =     0.00000000    0.00000000    0.00000000
     The ionic contribution  to forces
     atom    1 type  1   force =     0.00000000    0.00000000   -0.00000000
     atom    2 type  2   force =    -0.00000000   -0.00000000    0.00000000
     The local contribution  to forces
     atom    1 type  1   force =     0.00000000    0.00000000   -0.00000000
     atom    2 type  2   force =    -0.00000000   -0.00000000    0.00000000
     The core correction contribution to forces
     atom    1 type  1   force =    -0.00000000    0.00000000    0.00000000
     atom    2 type  2   force =     0.00000000    0.00000000   -0.00000000
     The Hubbard contrib.    to forces
     atom    1 type  1   force =     0.00000000    0.00000000    0.00000000
     atom    2 type  2   force =     0.00000000    0.00000000    0.00000000
     The SCF correction term to forces
     atom    1 type  1   force =    -0.00000000   -0.00000000   -0.00000000
     atom    2 type  2   force =    -0.00000000   -0.00000000    0.00000000

     Total force =     0.000000     Total SCF correction =     0.000000

     Computing stress (Cartesian axis) and pressure

          total   stress  (Ry/bohr**3)                   (kbar)     P=    77104.18
   0.52414356   0.00000000   0.00000000        77104.18        0.00        0.00
   0.00000000   0.52414356   0.00000000            0.00    77104.18        0.00
   0.00000000   0.00000000   0.52414356            0.00        0.00    77104.18

     BFGS Geometry Optimization
     Energy error            =      0.0E+00 Ry
     Gradient error          =      0.0E+00 Ry/Bohr
     Cell gradient error     =      7.7E+04 kbar

     number of scf cycles    =   1
     number of bfgs steps    =   0

     enthalpy           new  =    -218.5045176748 Ry

     new trust radius        =       0.5000000000 bohr
ibrav =      1
 celldm(1) =      4.46853453
Input lattice vectors:
     1.47328446     0.00000000     0.00000000
     0.00000000     1.47328446     0.00000000
     0.00000000     0.00000000     1.47328446
New lattice vectors in INITIAL alat:
     1.47328446     0.00000000     0.00000000
     0.00000000     1.47328446     0.00000000
     0.00000000     0.00000000     1.47328446
New lattice vectors in NEW alat (for information only):
     1.00000000     0.00000000     0.00000000
     0.00000000     1.00000000     0.00000000
     0.00000000     0.00000000     1.00000000
Discrepancy in bohr =     0.000000    0.000000    0.000000
     new conv_thr            =            1.0E-12 Ry

     new unit-cell volume =     89.22681 a.u.^3 (    13.22205 Ang^3 )
     density =      8.02084 g/cm^3

CELL_PARAMETERS (alat=  3.03304261)
   1.473284455   0.000000000   0.000000000
   0.000000000   1.473284455   0.000000000
   0.000000000   0.000000000   1.473284455

ATOMIC_POSITIONS (crystal)
Ti            0.0000000000        0.0000000000        0.0000000000
O             0.5000000000        0.5000000000        0.5000000000

     Writing config-only to output data dir ./tmp/TiO.save/
     NEW-OLD atomic charge density approx. for the potential

     Check: negative core charge=   -0.000260
     extrapolated charge   30.37022, renormalised to   18.00000

[...]

     WARNING: integrated charge=    18.00047070, expected=    18.00000000

[...]

     WARNING: integrated charge=    17.99999746, expected=    18.00000000

[...]

     Energy error            =      6.7E+00 Ry
     Gradient error          =      0.0E+00 Ry/Bohr
     Cell gradient error     =      4.9E+02 kbar

[...]

     enthalpy           old  =    -218.5045176748 Ry
     enthalpy           new  =    -225.2535160250 Ry

     CASE: enthalpy          _new < enthalpy          _old

[...]

     CASE: enthalpy          _new < enthalpy          _old

     small trust_radius: resetting bfgs history

     new trust radius        =       0.0001000000 bohr
ibrav =      1
 celldm(1) =      4.52738103
Input lattice vectors:
     1.49268626     0.00000000     0.00000000
     0.00000000     1.49268626     0.00000000
     0.00000000     0.00000000     1.49268626
New lattice vectors in INITIAL alat:
     1.49268626     0.00000000     0.00000000
     0.00000000     1.49268626     0.00000000
     0.00000000     0.00000000     1.49268626
New lattice vectors in NEW alat (for information only):
     1.00000000     0.00000000     0.00000000
     0.00000000     1.00000000     0.00000000
     0.00000000     0.00000000     1.00000000
Discrepancy in bohr =     0.000000    0.000000    0.000000
     new conv_thr            =            1.0E-14 Ry

[...]

     Threshold (ethr) on eigenvalues was too large:
     Diagonalizing with lowered threshold

     Davidson diagonalization with overlap
     ethr =  2.47E-09,  avg # of iterations =  1.0

[...]

     Energy error            =      6.3E-08 Ry
     Gradient error          =      0.0E+00 Ry/Bohr
     Cell gradient error     =      1.6E+00 kbar

     number of scf cycles    =   6
     number of bfgs steps    =   5

     enthalpy           old  =    -225.2594337072 Ry
     enthalpy           new  =    -225.2594336439 Ry

     CASE: enthalpy          _new > enthalpy          _old

     new trust radius        =       0.0000169948 bohr

     trust_radius < trust_radius_min

     resetting bfgs history

     Message from routine bfgs:
     history already reset at previous step: stopping
ibrav =      1
 celldm(1) =      4.52736069
Input lattice vectors:
     1.49267955     0.00000000     0.00000000
     0.00000000     1.49267955     0.00000000
     0.00000000     0.00000000     1.49267955
New lattice vectors in INITIAL alat:
     1.49267955     0.00000000     0.00000000
     0.00000000     1.49267955     0.00000000
     0.00000000     0.00000000     1.49267955
New lattice vectors in NEW alat (for information only):
     1.00000000     0.00000000     0.00000000
     0.00000000     1.00000000     0.00000000
     0.00000000     0.00000000     1.00000000
Discrepancy in bohr =     0.000000    0.000000    0.000000
     new conv_thr            =            1.0E-14 Ry

     new unit-cell volume =     92.79729 a.u.^3 (    13.75114 Ang^3 )
     density =      7.71223 g/cm^3

[...]

ATOMIC_POSITIONS (crystal)
Ti            0.0000000000        0.0000000000        0.0000000000
O             0.5000000000        0.5000000000        0.5000000000

     Writing config-only to output data dir ./tmp/TiO.save/
     NEW-OLD atomic charge density approx. for the potential

     Check: negative core charge=   -0.000294
     extrapolated charge   17.99976, renormalised to   18.00000

     Self-consistent Calculation

[...]

     Threshold (ethr) on eigenvalues was too large:
     Diagonalizing with lowered threshold

     Davidson diagonalization with overlap
     ethr =  1.86E-11,  avg # of iterations =  1.0

[...]

     total energy              =    -225.25943363 Ry
     estimated scf accuracy    <          8.3E-14 Ry

     iteration # 11     ecut=    70.00 Ry     beta= 0.20
     Davidson diagonalization with overlap
     ethr =  1.00E-13,  avg # of iterations =  1.0

     End of self-consistent calculation

[...]

          k = 0.2680-0.3350-0.3350 (   284 PWs)   bands (ev):

[...]

          k =-0.3350-0.3350-0.3350 (   280 PWs)   bands (ev):

   -31.9844  -9.5889  -9.5889  -9.5889   3.9602  13.1485  13.1485  13.1485
    30.4429  30.4429  30.4429  37.0312  37.0312

     the Fermi energy is    25.5891 ev

!    total energy              =    -225.25943363 Ry
     total all-electron energy =     -1858.029234 Ry
     estimated scf accuracy    <          1.1E-15 Ry
     smearing contrib. (-TS)   =       0.00039475 Ry
     internal energy E=F+TS    =    -225.25982838 Ry

     The total energy is F=E-TS. E is the sum of the following terms:
     one-electron contribution =      -4.55817618 Ry
     hartree contribution      =      19.27090975 Ry
     xc contribution           =     -26.77074112 Ry
     ewald contribution        =    -138.31380208 Ry
     one-center paw contrib.   =     -74.88801875 Ry

     convergence has been achieved in  11 iterations

     Forces acting on atoms (cartesian axes, Ry/au):

     atom    1 type  1   force =     0.00000000    0.00000000    0.00000000
     atom    2 type  2   force =     0.00000000    0.00000000    0.00000000
     The non-local contrib.  to forces
     atom    1 type  1   force =     0.00000000    0.00000000    0.00000000
     atom    2 type  2   force =     0.00000000    0.00000000    0.00000000
     The ionic contribution  to forces
     atom    1 type  1   force =    -0.00000000   -0.00000000   -0.00000000
     atom    2 type  2   force =     0.00000000    0.00000000    0.00000000
     The local contribution  to forces
     atom    1 type  1   force =     0.00000000   -0.00000000    0.00000000
     atom    2 type  2   force =    -0.00000000   -0.00000000   -0.00000000
     The core correction contribution to forces
     atom    1 type  1   force =    -0.00000000    0.00000000    0.00000000
     atom    2 type  2   force =    -0.00000000   -0.00000000   -0.00000000
     The Hubbard contrib.    to forces
     atom    1 type  1   force =     0.00000000    0.00000000    0.00000000
     atom    2 type  2   force =     0.00000000    0.00000000    0.00000000
     The SCF correction term to forces
     atom    1 type  1   force =     0.00000000    0.00000000    0.00000000
     atom    2 type  2   force =     0.00000000    0.00000000    0.00000000

     Total force =     0.000000     Total SCF correction =     0.000000

     Computing stress (Cartesian axis) and pressure

          total   stress  (Ry/bohr**3)                   (kbar)     P=        1.75
   0.00001187   0.00000000   0.00000000            1.75        0.00        0.00
   0.00000000   0.00001187   0.00000000            0.00        1.75        0.00
   0.00000000   0.00000000   0.00001187            0.00        0.00        1.75

     Message from routine bfgs:
     history already reset at previous step: exiting
     Energy error            =      7.8E-08 Ry
     Gradient error          =      0.0E+00 Ry/Bohr
     Cell gradient error     =      1.7E+00 kbar
ibrav =      1
 celldm(1) =      4.52736069
Input lattice vectors:
     1.49267955     0.00000000     0.00000000
     0.00000000     1.49267955     0.00000000
     0.00000000     0.00000000     1.49267955
New lattice vectors in INITIAL alat:
     1.49267955     0.00000000     0.00000000
     0.00000000     1.49267955     0.00000000
     0.00000000     0.00000000     1.49267955
New lattice vectors in NEW alat (for information only):
     1.00000000     0.00000000     0.00000000
     0.00000000     1.00000000     0.00000000
     0.00000000     0.00000000     1.00000000
Discrepancy in bohr =     0.000000    0.000000    0.000000

     bfgs failed after   7 scf cycles and   5 bfgs steps, convergence not achieved
     (criteria: energy <  1.0E-05 Ry, force <  1.0E-04 Ry/Bohr, cell <  5.0E-01 kbar)

     End of BFGS Geometry Optimization

     Final enthalpy           =    -225.2594336295 Ry

     File ./tmp/TiO.bfgs deleted, as requested
Begin final coordinates
     new unit-cell volume =     92.79729 a.u.^3 (    13.75114 Ang^3 )
     density =      7.71223 g/cm^3

CELL_PARAMETERS (alat=  3.03304261)
   1.492679553   0.000000000   0.000000000
   0.000000000   1.492679553   0.000000000
   0.000000000   0.000000000   1.492679553

ATOMIC_POSITIONS (crystal)
Ti            0.0000000000        0.0000000000        0.0000000000
O             0.5000000000        0.5000000000        0.5000000000
End final coordinates

     Writing config-only to output data dir ./tmp/TiO.save/

     Writing all to output data dir ./tmp/TiO.save/

     General routines

     Parallel routines

   This run was terminated on:  13:51:15  11Apr2025

   JOB DONE.